NAME ADLITTLE
ROWS
 N  OBJ
 L  ....01  
 E  ....02  
 L  ....03  
 L  ....04  
 L  ....05  
 L  ....06  
 L  ....07  
 L  ....08  
 L  ....09  
 E  ....10  
 L  ....11  
 L  ....12  
 L  ....13  
 L  ....14  
 L  ....15  
 L  ....16  
 L  ....17  
 L  ....18  
 L  ....19  
 L  ....20  
 L  ....21  
 L  ....22  
 L  ....23  
 L  ....24  
 E  ....25  
 L  ....26  
 L  ....27  
 E  ....28  
 L  ....29  
 L  ....30  
 E  ....31  
 E  ....32  
 E  ....33  
 L  ....34  
 L  ....35  
 E  ....36  
 L  ....37  
 L  ....38  
 L  ....39  
 E  ....40  
 L  ....41  
 E  ....42  
 E  ....43  
 E  ....44  
 L  ....45  
 L  ....46  
 L  ....47  
 L  ....48  
 E  ....49  
 E  ....50  
 G  ....51  
 L  ....52  
 L  ....53  
 E  ....54  
 L  ....55  
 L  ....56  
COLUMNS
    ...100    OBJ       -3280
    ...100    ....01    0.506
    ...100    ....04    1
    ...100    ....05    0.182
    ...100    ....55    0.312
    ...101    OBJ       -3280
    ...101    ....01    0.638
    ...101    ....04    1
    ...101    ....05    0.05
    ...101    ....55    0.312
    ...102    OBJ       3310
    ...102    ....01    -1
    ...103    OBJ       -1890
    ...103    ....05    0.92
    ...103    ....30    1
    ...103    ....49    -9.5
    ...103    ....52    -0.042
    ...103    ....53    -0.063
    ...103    ....55    0.08
    ...104    ....34    0.825
    ...104    ....35    0.175
    ...104    ....40    1
    ...104    ....51    16
    ...105    ....35    0.175
    ...105    ....40    1
    ...105    ....46    0.825
    ...105    ....51    21
    ...106    OBJ       -1890
    ...106    ....06    1
    ...106    ....30    1
    ...106    ....49    3.6
    ...106    ....52    -0.042
    ...106    ....53    -0.063
    ...107    OBJ       -903
    ...107    ....06    1
    ...107    ....38    1
    ...108    ....06    1
    ...108    ....50    -0.8
    ...109    OBJ       432
    ...109    ....31    -1.23
    ...109    ....42    0.23
    ...110    OBJ       432
    ...110    ....32    -1.23
    ...110    ....43    0.23
    ...110    ....56    1
    ...111    OBJ       432
    ...111    ....33    -1.23
    ...111    ....44    0.23
    ...111    ....56    1
    ...112    OBJ       446
    ...112    ....07    1
    ...112    ....31    -1
    ...113    OBJ       446
    ...113    ....07    1
    ...113    ....32    -1
    ...114    OBJ       446
    ...114    ....07    1
    ...114    ....33    -1
    ...115    OBJ       450
    ...115    ....08    1
    ...115    ....31    -0.95
    ...115    ....42    -0.05
    ...116    OBJ       450
    ...116    ....08    1
    ...116    ....32    -0.95
    ...116    ....43    -0.05
    ...117    OBJ       450
    ...117    ....08    1
    ...117    ....33    -0.95
    ...117    ....44    -0.05
    ...118    OBJ       459
    ...118    ....09    1
    ...118    ....31    -0.79
    ...118    ....42    -0.21
    ...119    OBJ       459
    ...119    ....09    1
    ...119    ....32    -0.79
    ...119    ....43    -0.21
    ...120    OBJ       459
    ...120    ....09    1
    ...120    ....33    -0.79
    ...120    ....44    -0.21
    ...121    OBJ       483
    ...121    ....11    1
    ...121    ....31    -0.42
    ...121    ....42    -0.58
    ...122    OBJ       483
    ...122    ....11    1
    ...122    ....32    -0.42
    ...122    ....43    -0.58
    ...123    OBJ       483
    ...123    ....11    1
    ...123    ....33    -0.42
    ...123    ....44    -0.58
    ...124    OBJ       500
    ...124    ....12    1
    ...124    ....31    -0.05
    ...124    ....42    -0.95
    ...125    OBJ       500
    ...125    ....12    1
    ...125    ....32    -0.05
    ...125    ....43    -0.95
    ...126    OBJ       500
    ...126    ....12    1
    ...126    ....33    -0.05
    ...126    ....44    -0.95
    ...127    OBJ       493
    ...127    ....13    1
    ...127    ....31    -0.26
    ...127    ....42    -0.74
    ...128    OBJ       493
    ...128    ....13    1
    ...128    ....32    -0.26
    ...128    ....43    -0.74
    ...129    OBJ       493
    ...129    ....13    1
    ...129    ....33    -0.26
    ...129    ....44    -0.74
    ...130    OBJ       -1890
    ...130    ....14    1
    ...130    ....30    1
    ...130    ....49    -3.2
    ...130    ....52    -0.042
    ...130    ....53    -0.063
    ...131    OBJ       -903
    ...131    ....14    1
    ...131    ....38    1
    ...132    OBJ       506
    ...132    ....17    1
    ...132    ....31    0.26
    ...132    ....42    -1.26
    ...133    ....14    1
    ...133    ....50    -0.8
    ...134    OBJ       506
    ...134    ....17    1
    ...134    ....32    0.26
    ...134    ....43    -1.26
    ...135    OBJ       506
    ...135    ....17    1
    ...135    ....33    0.26
    ...135    ....44    -1.26
    ...136    OBJ       505
    ...136    ....15    1
    ...136    ....31    0.16
    ...136    ....42    -1.16
    ...137    OBJ       505
    ...137    ....15    1
    ...137    ....32    0.16
    ...137    ....43    -1.16
    ...138    OBJ       505
    ...138    ....15    1
    ...138    ....33    0.16
    ...138    ....44    -1.16
    ...139    OBJ       499
    ...139    ....16    1
    ...139    ....31    -0.16
    ...139    ....42    -0.84
    ...140    OBJ       499
    ...140    ....16    1
    ...140    ....32    -0.16
    ...140    ....43    -0.84
    ...141    OBJ       499
    ...141    ....16    1
    ...141    ....33    -0.16
    ...141    ....44    -0.84
    ...142    ....10    -1
    ...143    ....02    1
    ...143    ....03    0.79
    ...143    ....10    37
    ...143    ....28    0.494
    ...143    ....34    0.506
    ...143    ....54    2.27424
    ...144    ....02    1
    ...144    ....03    0.53
    ...144    ....10    47
    ...144    ....28    0.492
    ...144    ....46    0.508
    ...144    ....54    2.2632
    ...145    OBJ       512
    ...145    ....18    1
    ...145    ....31    0.62
    ...145    ....42    -1.62
    ...146    OBJ       512
    ...146    ....18    1
    ...146    ....32    0.62
    ...146    ....43    -1.62
    ...147    OBJ       512
    ...147    ....18    1
    ...147    ....33    0.62
    ...147    ....44    -1.62
    ...148    OBJ       70.9
    ...148    ....01    -0.247
    ...148    ....06    0.1726
    ...148    ....14    -0.3122
    ...148    ....20    1.783
    ...148    ....28    0.4703
    ...148    ....50    -0.0928
    ...148    ....54    1.40015
    ...149    OBJ       39.8
    ...149    ....01    -0.157
    ...149    ....14    -0.2399
    ...149    ....20    1
    ...149    ....28    0.4273
    ...149    ....50    -0.0361
    ...149    ....54    1.20404
    ...150    OBJ       39.8
    ...150    ....01    -0.157
    ...150    ....14    -0.2789
    ...150    ....20    1
    ...150    ....28    0.4663
    ...150    ....50    -0.0361
    ...150    ....54    1.43498
    ...151    OBJ       2.04
    ...151    ....26    1
    ...151    ....28    0.55
    ...151    ....50    -0.52
    ...151    ....54    0.6
    ...152    ....28    1
    ...152    ....50    -1
    ...152    ....54    1.8
    ...153    OBJ       1.8
    ...153    ....03    -0.33
    ...153    ....21    1
    ...153    ....50    0.017
    ...154    OBJ       1.8
    ...154    ....21    1
    ...154    ....37    -0.33
    ...155    OBJ       -2600
    ...155    ....01    0.2
    ...155    ....14    0.73
    ...155    ....29    1
    ...155    ....55    0.07
    ...156    OBJ       -2600
    ...156    ....14    0.72
    ...156    ....29    1
    ...156    ....47    0.2
    ...156    ....55    0.08
    ...157    OBJ       10.4
    ...157    ....02    1
    ...157    ....03    0.25
    ...157    ....10    45
    ...157    ....22    0.875
    ...157    ....28    0.3675
    ...157    ....34    0.6325
    ...157    ....50    0.02536
    ...157    ....54    1.614
    ...158    OBJ       10.4
    ...158    ....02    1
    ...158    ....03    0.2
    ...158    ....10    55
    ...158    ....22    0.875
    ...158    ....28    0.365
    ...158    ....46    0.635
    ...158    ....50    0.02538
    ...158    ....54    1.59
    ...159    OBJ       28.8
    ...159    ....19    1
    ...159    ....28    -0.828
    ...159    ....31    1
    ...159    ....34    -0.095
    ...159    ....35    -0.02
    ...159    ....50    0.012
    ...159    ....54    -1.42
    ...159    ....55    -0.0467
    ...160    OBJ       43.4
    ...160    ....01    -0.0022
    ...160    ....06    -0.0192
    ...160    ....19    1
    ...160    ....27    0.679
    ...160    ....28    -0.808
    ...160    ....32    1
    ...160    ....34    -0.095
    ...160    ....35    -0.02
    ...160    ....50    0.0205
    ...160    ....54    -1.84
    ...160    ....55    -0.0467
    ...161    OBJ       30.4
    ...161    ....01    -0.0022
    ...161    ....06    -0.0192
    ...161    ....24    1
    ...161    ....27    0.679
    ...161    ....28    -0.808
    ...161    ....33    1
    ...161    ....34    -0.095
    ...161    ....35    -0.02
    ...161    ....50    0.0205
    ...161    ....54    -1.84
    ...161    ....55    -0.0467
    ...162    ....28    -1
    ...162    ....34    1
    ...162    ....54    -5.2
    ...163    ....28    -1
    ...163    ....35    1
    ...163    ....54    -6.7
    ...164    OBJ       -1218
    ...164    ....35    1
    ...164    ....48    1
    ...165    ....35    1
    ...165    ....50    -0.8
    ...166    ....28    0.482
    ...166    ....34    0.498
    ...166    ....35    0.02
    ...166    ....36    1
    ...166    ....37    0.79
    ...166    ....54    2.217
    ...167    ....28    0.474
    ...167    ....35    0.02
    ...167    ....36    1
    ...167    ....37    0.53
    ...167    ....46    0.506
    ...167    ....54    2.18
    ...168    OBJ       -1322
    ...168    ....06    0.07
    ...168    ....35    0.1
    ...168    ....39    1
    ...168    ....55    0.83
    ...169    OBJ       -1322
    ...169    ....35    0.07
    ...169    ....39    1
    ...169    ....46    0.33
    ...169    ....55    0.6
    ...170    OBJ       -1322
    ...170    ....34    0.33
    ...170    ....35    0.07
    ...170    ....39    1
    ...170    ....55    0.6
    ...171    OBJ       -1660
    ...171    ....22    0.625
    ...171    ....28    -0.125
    ...171    ....34    1.125
    ...171    ....41    1
    ...171    ....50    0.01812
    ...171    ....54    -0.65
    ...172    OBJ       -1670
    ...172    ....41    1
    ...172    ....46    1
    ...173    OBJ       14.8
    ...173    ....22    1.25
    ...173    ....28    -0.25
    ...173    ....34    1.03125
    ...173    ....35    0.21875
    ...173    ....40    1
    ...173    ....50    0.03625
    ...173    ....51    30
    ...173    ....54    -1.36562
    ...174    OBJ       14.8
    ...174    ....22    1.25
    ...174    ....28    -0.25
    ...174    ....35    0.21875
    ...174    ....40    1
    ...174    ....46    1.03125
    ...174    ....50    0.03625
    ...174    ....51    35
    ...174    ....54    -1.38375
    ...175    OBJ       28.8
    ...175    ....19    1.072
    ...175    ....28    -0.706
    ...175    ....35    -0.027
    ...175    ....42    1
    ...175    ....46    -0.128
    ...175    ....50    0.0129
    ...175    ....54    -1.61
    ...175    ....55    -0.1203
    ...176    OBJ       43
    ...176    ....01    -0.0012
    ...176    ....06    -0.0159
    ...176    ....19    1.072
    ...176    ....27    0.534
    ...176    ....28    -0.69
    ...176    ....35    -0.027
    ...176    ....43    1
    ...176    ....46    -0.128
    ...176    ....50    0.0195
    ...176    ....54    -1.84
    ...176    ....55    -0.1203
    ...177    OBJ       30
    ...177    ....01    -0.0012
    ...177    ....06    -0.0159
    ...177    ....24    1
    ...177    ....27    0.534
    ...177    ....28    -0.69
    ...177    ....35    -0.027
    ...177    ....44    1
    ...177    ....46    -0.128
    ...177    ....50    0.0195
    ...177    ....54    -1.84
    ...177    ....55    -0.1203
    ...178    OBJ       -1763
    ...178    ....05    0.181
    ...178    ....45    1
    ...178    ....47    0.11
    ...178    ....55    0.709
    ...179    OBJ       -1722
    ...179    ....05    0.051
    ...179    ....45    1
    ...179    ....47    0.055
    ...179    ....55    0.894
    ...180    OBJ       -1680
    ...180    ....05    0.036
    ...180    ....45    1
    ...180    ....55    0.964
    ...181    ....28    -1
    ...181    ....46    1
    ...181    ....54    -5.3
    ...182    OBJ       -1890
    ...182    ....30    1
    ...182    ....47    0.92
    ...182    ....49    -10.1
    ...182    ....52    -0.042
    ...182    ....53    -0.063
    ...182    ....55    0.08
    ...183    OBJ       1780
    ...183    ....02    1
    ...183    ....03    0.4
    ...183    ....10    45
    ...184    OBJ       1600
    ...184    ....28    -1
    ...184    ....54    -4.35
    ...185    OBJ       903
    ...185    ....28    -1
    ...185    ....54    -2.1
    ...186    OBJ       1760
    ...186    ....36    1
    ...186    ....37    0.8
    ...187    OBJ       2100
    ...187    ....40    1
    ...187    ....51    24
    ...188    OBJ       1000
    ...188    ....49    -64.3
    ...188    ....52    1
    ...189    OBJ       1000
    ...189    ....49    -27.4
    ...189    ....53    1
    ...190    OBJ       -1890
    ...190    ....30    1
    ...190    ....49    9.1
    ...190    ....52    -0.042
    ...190    ....53    -0.063
    ...190    ....55    1
    ...191    OBJ       92.1
    ...191    ....05    -0.36
    ...191    ....23    1
    ...191    ....28    -0.026
    ...191    ....47    -0.134
    ...191    ....50    -0.182
    ...191    ....54    -0.1742
    ...191    ....55    0.826
    ...192    OBJ       -903
    ...192    ....38    1
    ...192    ....55    1
    ...193    OBJ       78.7
    ...193    ....55    1
    ...194    OBJ       -1218
    ...194    ....48    1
    ...194    ....55    1
    ...195    OBJ       15.6
    ...195    ....05    -0.396
    ...195    ....25    1
    ...195    ....28    -0.029
    ...195    ....47    -0.147
    ...195    ....50    -0.119
    ...195    ....54    -0.194
    ...195    ....55    0.81
    ...196    ....50    -0.8
    ...196    ....55    1
RHS
    RHS1      ....02    52.6
    RHS1      ....03    22.7
    RHS1      ....04    23.4
    RHS1      ....07    108
    RHS1      ....08    50
    RHS1      ....09    13
    RHS1      ....10    2366
    RHS1      ....11    200
    RHS1      ....12    265
    RHS1      ....13    300
    RHS1      ....15    31
    RHS1      ....16    60
    RHS1      ....17    134
    RHS1      ....18    34
    RHS1      ....19    413
    RHS1      ....20    41.5
    RHS1      ....21    15
    RHS1      ....22    20.6
    RHS1      ....23    13.5
    RHS1      ....24    440
    RHS1      ....26    16
    RHS1      ....27    290
    RHS1      ....28    -524.9
    RHS1      ....29    3.1
    RHS1      ....30    9.1
    RHS1      ....36    43
    RHS1      ....37    34.4
    RHS1      ....38    15.6
    RHS1      ....39    19.2
    RHS1      ....40    44.9
    RHS1      ....41    6.1
    RHS1      ....45    13.2
    RHS1      ....48    31.2
    RHS1      ....50    2.5
    RHS1      ....51    1080
    RHS1      ....54    -1231.6
    RHS1      ....56    107
BOUNDS
ENDATA
